
(set-logic ALL) 

(declare-datatype MyList ((Nil) (Cons (head Real) (tail MyList)) )) 
(declare-fun l0 () MyList) 
(declare-fun l1 () MyList) 
(declare-fun l2 () MyList) 
(declare-fun l3 () MyList) 
(declare-fun i0 () Real) 
(declare-fun i1 () Real) 
(assert (= l0 Nil) )
(assert (or (= l3 l1) (= l3 Nil) (= l3 Nil) (is-Nil Nil)) )
(assert (and (is-Nil l0) (= l3 Nil) (= l3 Nil)) )
(assert (or (is-Nil Nil) (is-Cons Nil)) )
(assert (is-Nil Nil) )
(assert (= l3 Nil) )
(assert (and (= l0 Nil) (is-Nil l1)) )
(assert (not (= l0 l2)) )
(check-sat)
